(set-logic QF_BV)
(declare-fun reset0 () Bool)
(declare-fun reset1 () Bool)
(declare-fun reset2 () Bool)
(declare-fun reset3 () Bool)
(declare-fun reset4 () Bool)
(declare-fun reset5 () Bool)
(declare-fun reset6 () Bool)
(declare-fun reset7 () Bool)
(declare-fun reset8 () Bool)
(define-fun watchdog0 () (_ BitVec 32) (_ bv0 32))
(define-fun prescaler0 () (_ BitVec 12) (_ bv0 12))
(define-fun wake0 () (_ BitVec 64) (_ bv0 64))
(define-fun watchdog1 () (_ BitVec 32) (ite reset0 (_ bv0 32) (bvadd watchdog0 (_ bv1 32))))
(define-fun prescaler1 () (_ BitVec 12) prescaler0)
(define-fun wake1 () (_ BitVec 64) (ite reset0 (_ bv0 64) (ite (= prescaler0 (_ bv0 12)) (bvadd wake0 (_ bv1 64)) wake0)))
(define-fun watchdog2 () (_ BitVec 32) (ite reset1 (_ bv0 32) (bvadd watchdog1 (_ bv1 32))))
(define-fun prescaler2 () (_ BitVec 12) prescaler1)
(define-fun wake2 () (_ BitVec 64) (ite reset1 (_ bv0 64) (ite (= prescaler1 (_ bv0 12)) (bvadd wake1 (_ bv1 64)) wake1)))
(define-fun watchdog3 () (_ BitVec 32) (ite reset2 (_ bv0 32) (bvadd watchdog2 (_ bv1 32))))
(define-fun prescaler3 () (_ BitVec 12) prescaler2)
(define-fun wake3 () (_ BitVec 64) (ite reset2 (_ bv0 64) (ite (= prescaler2 (_ bv0 12)) (bvadd wake2 (_ bv1 64)) wake2)))
(define-fun watchdog4 () (_ BitVec 32) (ite reset3 (_ bv0 32) (bvadd watchdog3 (_ bv1 32))))
(define-fun prescaler4 () (_ BitVec 12) prescaler3)
(define-fun wake4 () (_ BitVec 64) (ite reset3 (_ bv0 64) (ite (= prescaler3 (_ bv0 12)) (bvadd wake3 (_ bv1 64)) wake3)))
(define-fun watchdog5 () (_ BitVec 32) (ite reset4 (_ bv0 32) (bvadd watchdog4 (_ bv1 32))))
(define-fun prescaler5 () (_ BitVec 12) prescaler4)
(define-fun wake5 () (_ BitVec 64) (ite reset4 (_ bv0 64) (ite (= prescaler4 (_ bv0 12)) (bvadd wake4 (_ bv1 64)) wake4)))
(define-fun watchdog6 () (_ BitVec 32) (ite reset5 (_ bv0 32) (bvadd watchdog5 (_ bv1 32))))
(define-fun prescaler6 () (_ BitVec 12) prescaler5)
(define-fun wake6 () (_ BitVec 64) (ite reset5 (_ bv0 64) (ite (= prescaler5 (_ bv0 12)) (bvadd wake5 (_ bv1 64)) wake5)))
(define-fun watchdog7 () (_ BitVec 32) (ite reset6 (_ bv0 32) (bvadd watchdog6 (_ bv1 32))))
(define-fun prescaler7 () (_ BitVec 12) prescaler6)
(define-fun wake7 () (_ BitVec 64) (ite reset6 (_ bv0 64) (ite (= prescaler6 (_ bv0 12)) (bvadd wake6 (_ bv1 64)) wake6)))
(define-fun watchdog8 () (_ BitVec 32) (ite reset7 (_ bv0 32) (bvadd watchdog7 (_ bv1 32))))
(define-fun prescaler8 () (_ BitVec 12) prescaler7)
(define-fun wake8 () (_ BitVec 64) (ite reset7 (_ bv0 64) (ite (= prescaler7 (_ bv0 12)) (bvadd wake7 (_ bv1 64)) wake7)))
(define-fun watchdog9 () (_ BitVec 32) (ite reset8 (_ bv0 32) (bvadd watchdog8 (_ bv1 32))))
(define-fun prescaler9 () (_ BitVec 12) prescaler8)
(define-fun wake9 () (_ BitVec 64) (ite reset8 (_ bv0 64) (ite (= prescaler8 (_ bv0 12)) (bvadd wake8 (_ bv1 64)) wake8)))
(push 1)
(assert (or
  (bvuge watchdog0 (_ bv5 32)) (bvuge watchdog0 (_ bv9 32)) (and (= prescaler0 (_ bv0 12)) (bvuge wake0 (_ bv7 64)))
  (bvuge watchdog1 (_ bv5 32)) (bvuge watchdog1 (_ bv9 32)) (and (= prescaler1 (_ bv0 12)) (bvuge wake1 (_ bv7 64)))
  (bvuge watchdog2 (_ bv5 32)) (bvuge watchdog2 (_ bv9 32)) (and (= prescaler2 (_ bv0 12)) (bvuge wake2 (_ bv7 64)))
  (bvuge watchdog3 (_ bv5 32)) (bvuge watchdog3 (_ bv9 32)) (and (= prescaler3 (_ bv0 12)) (bvuge wake3 (_ bv7 64)))
  (bvuge watchdog4 (_ bv5 32)) (bvuge watchdog4 (_ bv9 32)) (and (= prescaler4 (_ bv0 12)) (bvuge wake4 (_ bv7 64)))))
(check-sat)
(pop 1)
(push 1)
(assert (bvuge watchdog5 (_ bv5 32)))
(check-sat)
(pop 1)
(push 1)
(assert (or (bvuge wake0 (_ bv7 64)) (bvuge wake1 (_ bv7 64)) (bvuge wake2 (_ bv7 64)) (bvuge wake3 (_ bv7 64)) (bvuge wake4 (_ bv7 64)) (bvuge wake5 (_ bv7 64)) (bvuge wake6 (_ bv7 64))))
(check-sat)
(pop 1)
(push 1)
(assert (and (= prescaler7 (_ bv0 12)) (bvuge wake7 (_ bv7 64))))
(check-sat)
(pop 1)
(push 1)
(assert (or (bvuge watchdog0 (_ bv9 32)) (bvuge watchdog1 (_ bv9 32)) (bvuge watchdog2 (_ bv9 32)) (bvuge watchdog3 (_ bv9 32)) (bvuge watchdog4 (_ bv9 32)) (bvuge watchdog5 (_ bv9 32)) (bvuge watchdog6 (_ bv9 32)) (bvuge watchdog7 (_ bv9 32)) (bvuge watchdog8 (_ bv9 32))))
(check-sat)
(pop 1)
(push 1)
(assert (bvuge watchdog9 (_ bv9 32)))
(check-sat)
(pop 1)
